# u v x_u y_u x_v y_v
0 1 0.000 0.000 20.000 0.000
0 5 0.000 0.000 0.000 20.000
1 2 20.000 0.000 40.000 0.000
1 6 20.000 0.000 20.000 20.000
2 3 40.000 0.000 60.000 0.000
2 7 40.000 0.000 40.000 20.000
3 4 60.000 0.000 80.000 0.000
3 8 60.000 0.000 60.000 20.000
4 9 80.000 0.000 80.000 20.000
5 6 0.000 20.000 20.000 20.000
5 10 0.000 20.000 0.000 40.000
6 7 20.000 20.000 40.000 20.000
6 11 20.000 20.000 20.000 40.000
7 8 40.000 20.000 60.000 20.000
7 12 40.000 20.000 40.000 40.000
8 9 60.000 20.000 80.000 20.000
8 13 60.000 20.000 60.000 40.000
9 14 80.000 20.000 80.000 40.000
10 11 0.000 40.000 20.000 40.000
10 15 0.000 40.000 0.000 60.000
11 12 20.000 40.000 40.000 40.000
11 16 20.000 40.000 20.000 60.000
12 13 40.000 40.000 60.000 40.000
12 17 40.000 40.000 40.000 60.000
13 14 60.000 40.000 80.000 40.000
13 18 60.000 40.000 60.000 60.000
14 19 80.000 40.000 80.000 60.000
15 16 0.000 60.000 20.000 60.000
15 20 0.000 60.000 0.000 80.000
16 17 20.000 60.000 40.000 60.000
16 21 20.000 60.000 20.000 80.000
17 18 40.000 60.000 60.000 60.000
17 22 40.000 60.000 40.000 80.000
18 19 60.000 60.000 80.000 60.000
18 23 60.000 60.000 60.000 80.000
19 24 80.000 60.000 80.000 80.000
20 21 0.000 80.000 20.000 80.000
21 22 20.000 80.000 40.000 80.000
22 23 40.000 80.000 60.000 80.000
23 24 60.000 80.000 80.000 80.000
