# u v x_u y_u x_v y_v
0 20 63.943 2.501 70.457 4.582
0 59 63.943 2.501 60.897 15.284
0 98 63.943 2.501 55.033 5.059
1 11 27.503 22.321 34.025 15.548
1 21 27.503 22.321 22.790 28.939
1 25 27.503 22.321 37.018 20.951
1 34 27.503 22.321 31.545 26.774
1 39 27.503 22.321 26.488 24.663
1 72 27.503 22.321 42.314 21.180
1 74 27.503 22.321 20.115 31.172
1 79 27.503 22.321 23.011 22.022
1 84 27.503 22.321 21.424 13.231
1 92 27.503 22.321 40.262 33.930
2 7 73.647 67.670 64.988 54.494
2 10 73.647 67.670 80.582 69.814
2 14 73.647 67.670 84.749 60.373
2 15 73.647 67.670 80.713 72.973
2 18 73.647 67.670 82.940 61.852
2 19 73.647 67.670 86.171 57.735
2 27 73.647 67.670 64.804 60.913
2 31 73.647 67.670 55.695 68.461
2 32 73.647 67.670 84.285 77.600
2 51 73.647 67.670 68.171 53.697
2 60 73.647 67.670 76.251 53.938
2 61 73.647 67.670 77.863 53.035
2 64 73.647 67.670 87.872 83.167
2 73 73.647 67.670 53.930 72.993
2 90 73.647 67.670 72.908 67.336
3 55 89.218 8.694 87.585 26.339
3 69 89.218 8.694 76.583 12.839
3 82 89.218 8.694 85.964 7.086
3 91 89.218 8.694 98.417 9.842
3 93 89.218 8.694 86.167 24.866
4 11 42.192 2.980 34.025 15.548
4 65 42.192 2.980 30.751 5.793
4 72 42.192 2.980 42.314 21.180
5 8 21.864 50.536 22.044 58.927
5 17 21.864 50.536 37.853 55.204
5 29 21.864 50.536 16.340 37.946
5 45 21.864 50.536 10.965 62.745
5 52 21.864 50.536 26.683 64.096
5 53 21.864 50.536 11.155 43.477
5 58 21.864 50.536 29.844 63.895
5 67 21.864 50.536 8.565 48.599
5 74 21.864 50.536 20.115 31.172
5 78 21.864 50.536 33.809 58.831
5 80 21.864 50.536 7.099 63.110
5 83 21.864 50.536 23.800 66.898
5 88 21.864 50.536 9.693 43.105
5 94 21.864 50.536 19.021 44.861
6 22 2.654 19.884 7.979 23.279
6 23 2.654 19.884 10.100 27.797
6 77 2.654 19.884 12.100 22.470
7 27 64.988 54.494 64.804 60.913
7 31 64.988 54.494 55.695 68.461
7 37 64.988 54.494 65.544 39.563
7 51 64.988 54.494 68.171 53.697
7 60 64.988 54.494 76.251 53.938
7 61 64.988 54.494 77.863 53.035
7 70 64.988 54.494 47.528 54.980
7 76 64.988 54.494 43.810 51.758
7 90 64.988 54.494 72.908 67.336
8 28 22.044 58.927 17.114 72.913
8 45 22.044 58.927 10.965 62.745
8 52 22.044 58.927 26.683 64.096
8 58 22.044 58.927 29.844 63.895
8 78 22.044 58.927 33.809 58.831
8 83 22.044 58.927 23.800 66.898
8 94 22.044 58.927 19.021 44.861
9 69 80.943 0.650 76.583 12.839
9 82 80.943 0.650 85.964 7.086
10 14 80.582 69.814 84.749 60.373
10 15 80.582 69.814 80.713 72.973
10 18 80.582 69.814 82.940 61.852
10 19 80.582 69.814 86.171 57.735
10 27 80.582 69.814 64.804 60.913
10 32 80.582 69.814 84.285 77.600
10 60 80.582 69.814 76.251 53.938
10 61 80.582 69.814 77.863 53.035
10 64 80.582 69.814 87.872 83.167
10 85 80.582 69.814 93.551 57.104
10 90 80.582 69.814 72.908 67.336
11 25 34.025 15.548 37.018 20.951
11 34 34.025 15.548 31.545 26.774
11 39 34.025 15.548 26.488 24.663
11 42 34.025 15.548 39.940 21.932
11 56 34.025 15.548 50.059 17.865
11 65 34.025 15.548 30.751 5.793
11 72 34.025 15.548 42.314 21.180
11 79 34.025 15.548 23.011 22.022
11 84 34.025 15.548 21.424 13.231
11 95 34.025 15.548 42.188 27.855
12 36 95.721 33.659 87.637 31.468
12 38 95.721 33.659 91.455 45.885
12 55 95.721 33.659 87.585 26.339
12 93 95.721 33.659 86.167 24.866
13 22 9.275 9.672 7.979 23.279
13 44 9.275 9.672 9.091 4.712
13 77 9.275 9.672 12.100 22.470
13 84 9.275 9.672 21.424 13.231
14 15 84.749 60.373 80.713 72.973
14 18 84.749 60.373 82.940 61.852
14 19 84.749 60.373 86.171 57.735
14 30 84.749 60.373 98.952 64.000
14 60 84.749 60.373 76.251 53.938
14 61 84.749 60.373 77.863 53.035
14 85 84.749 60.373 93.551 57.104
14 90 84.749 60.373 72.908 67.336
15 18 80.713 72.973 82.940 61.852
15 32 80.713 72.973 84.285 77.600
15 90 80.713 72.973 72.908 67.336
16 41 53.623 97.312 58.459 89.782
16 54 53.623 97.312 45.372 95.382
16 97 53.623 97.312 44.313 86.135
17 70 37.853 55.204 47.528 54.980
17 76 37.853 55.204 43.810 51.758
17 78 37.853 55.204 33.809 58.831
17 83 37.853 55.204 23.800 66.898
17 94 37.853 55.204 19.021 44.861
18 19 82.940 61.852 86.171 57.735
18 27 82.940 61.852 64.804 60.913
18 32 82.940 61.852 84.285 77.600
18 60 82.940 61.852 76.251 53.938
18 61 82.940 61.852 77.863 53.035
18 85 82.940 61.852 93.551 57.104
18 90 82.940 61.852 72.908 67.336
19 38 86.171 57.735 91.455 45.885
19 60 86.171 57.735 76.251 53.938
19 61 86.171 57.735 77.863 53.035
19 85 86.171 57.735 93.551 57.104
19 90 86.171 57.735 72.908 67.336
20 59 70.457 4.582 60.897 15.284
20 69 70.457 4.582 76.583 12.839
21 22 22.790 28.939 7.979 23.279
21 23 22.790 28.939 10.100 27.797
21 25 22.790 28.939 37.018 20.951
21 29 22.790 28.939 16.340 37.946
21 34 22.790 28.939 31.545 26.774
21 39 22.790 28.939 26.488 24.663
21 74 22.790 28.939 20.115 31.172
21 77 22.790 28.939 12.100 22.470
21 79 22.790 28.939 23.011 22.022
21 84 22.790 28.939 21.424 13.231
21 92 22.790 28.939 40.262 33.930
21 94 22.790 28.939 19.021 44.861
22 23 7.979 23.279 10.100 27.797
22 62 7.979 23.279 0.057 32.416
22 77 7.979 23.279 12.100 22.470
23 29 10.100 27.797 16.340 37.946
23 47 10.100 27.797 6.353 38.162
23 74 10.100 27.797 20.115 31.172
23 77 10.100 27.797 12.100 22.470
23 94 10.100 27.797 19.021 44.861
24 37 63.568 36.483 65.544 39.563
25 34 37.018 20.951 31.545 26.774
25 39 37.018 20.951 26.488 24.663
25 42 37.018 20.951 39.940 21.932
25 56 37.018 20.951 50.059 17.865
25 72 37.018 20.951 42.314 21.180
25 92 37.018 20.951 40.262 33.930
25 95 37.018 20.951 42.188 27.855
26 71 26.698 93.665 26.506 87.243
26 81 26.698 93.665 22.894 90.542
26 96 26.698 93.665 24.981 92.327
27 31 64.804 60.913 55.695 68.461
27 51 64.804 60.913 68.171 53.697
27 60 64.804 60.913 76.251 53.938
27 61 64.804 60.913 77.863 53.035
27 70 64.804 60.913 47.528 54.980
27 73 64.804 60.913 53.930 72.993
27 90 64.804 60.913 72.908 67.336
28 45 17.114 72.913 10.965 62.745
28 50 17.114 72.913 1.148 72.072
28 52 17.114 72.913 26.683 64.096
28 58 17.114 72.913 29.844 63.895
28 68 17.114 72.913 6.921 76.060
28 71 17.114 72.913 26.506 87.243
28 80 17.114 72.913 7.099 63.110
28 81 17.114 72.913 22.894 90.542
28 83 17.114 72.913 23.800 66.898
29 39 16.340 37.946 26.488 24.663
29 47 16.340 37.946 6.353 38.162
29 53 16.340 37.946 11.155 43.477
29 67 16.340 37.946 8.565 48.599
29 74 16.340 37.946 20.115 31.172
29 77 16.340 37.946 12.100 22.470
29 88 16.340 37.946 9.693 43.105
29 94 16.340 37.946 19.021 44.861
30 75 98.952 64.000 99.515 64.988
30 85 98.952 64.000 93.551 57.104
31 70 55.695 68.461 47.528 54.980
31 73 55.695 68.461 53.930 72.993
31 76 55.695 68.461 43.810 51.758
31 86 55.695 68.461 47.267 78.462
31 90 55.695 68.461 72.908 67.336
32 90 84.285 77.600 72.908 67.336
33 65 22.905 3.210 30.751 5.793
33 84 22.905 3.210 21.424 13.231
34 39 31.545 26.774 26.488 24.663
34 42 31.545 26.774 39.940 21.932
34 72 31.545 26.774 42.314 21.180
34 74 31.545 26.774 20.115 31.172
34 79 31.545 26.774 23.011 22.022
34 92 31.545 26.774 40.262 33.930
34 95 31.545 26.774 42.188 27.855
35 71 21.098 94.291 26.506 87.243
35 81 21.098 94.291 22.894 90.542
35 96 21.098 94.291 24.981 92.327
36 46 87.637 31.468 79.208 42.216
36 55 87.637 31.468 87.585 26.339
36 87 87.637 31.468 80.750 19.041
36 93 87.637 31.468 86.167 24.866
37 46 65.544 39.563 79.208 42.216
37 51 65.544 39.563 68.171 53.697
38 43 91.455 45.885 99.754 50.953
38 46 91.455 45.885 79.208 42.216
38 48 91.455 45.885 99.612 52.911
38 85 91.455 45.885 93.551 57.104
39 72 26.488 24.663 42.314 21.180
39 74 26.488 24.663 20.115 31.172
39 79 26.488 24.663 23.011 22.022
39 84 26.488 24.663 21.424 13.231
39 92 26.488 24.663 40.262 33.930
40 56 56.137 26.274 50.059 17.865
40 59 56.137 26.274 60.897 15.284
40 72 56.137 26.274 42.314 21.180
40 92 56.137 26.274 40.262 33.930
40 95 56.137 26.274 42.188 27.855
41 73 58.459 89.782 53.930 72.993
41 97 58.459 89.782 44.313 86.135
42 56 39.940 21.932 50.059 17.865
42 72 39.940 21.932 42.314 21.180
42 92 39.940 21.932 40.262 33.930
42 95 39.940 21.932 42.188 27.855
43 48 99.754 50.953 99.612 52.911
43 85 99.754 50.953 93.551 57.104
45 50 10.965 62.745 1.148 72.072
45 67 10.965 62.745 8.565 48.599
45 68 10.965 62.745 6.921 76.060
45 80 10.965 62.745 7.099 63.110
45 83 10.965 62.745 23.800 66.898
45 94 10.965 62.745 19.021 44.861
46 55 79.208 42.216 87.585 26.339
46 60 79.208 42.216 76.251 53.938
46 61 79.208 42.216 77.863 53.035
46 93 79.208 42.216 86.167 24.866
47 53 6.353 38.162 11.155 43.477
47 62 6.353 38.162 0.057 32.416
47 88 6.353 38.162 9.693 43.105
47 94 6.353 38.162 19.021 44.861
48 85 99.612 52.911 93.551 57.104
49 99 97.108 86.078 99.928 83.603
50 68 1.148 72.072 6.921 76.060
51 60 68.171 53.697 76.251 53.938
51 61 68.171 53.697 77.863 53.035
51 70 68.171 53.697 47.528 54.980
51 90 68.171 53.697 72.908 67.336
52 58 26.683 64.096 29.844 63.895
52 76 26.683 64.096 43.810 51.758
52 83 26.683 64.096 23.800 66.898
52 94 26.683 64.096 19.021 44.861
53 67 11.155 43.477 8.565 48.599
53 88 11.155 43.477 9.693 43.105
53 94 11.155 43.477 19.021 44.861
54 97 45.372 95.382 44.313 86.135
55 69 87.585 26.339 76.583 12.839
55 82 87.585 26.339 85.964 7.086
55 87 87.585 26.339 80.750 19.041
55 91 87.585 26.339 98.417 9.842
55 93 87.585 26.339 86.167 24.866
56 59 50.059 17.865 60.897 15.284
56 72 50.059 17.865 42.314 21.180
56 95 50.059 17.865 42.188 27.855
56 98 50.059 17.865 55.033 5.059
57 64 91.263 87.052 87.872 83.167
57 66 91.263 87.052 87.801 94.695
58 70 29.844 63.895 47.528 54.980
58 76 29.844 63.895 43.810 51.758
58 83 29.844 63.895 23.800 66.898
59 69 60.897 15.284 76.583 12.839
59 72 60.897 15.284 42.314 21.180
59 87 60.897 15.284 80.750 19.041
59 98 60.897 15.284 55.033 5.059
60 61 76.251 53.938 77.863 53.035
60 90 76.251 53.938 72.908 67.336
61 90 77.863 53.035 72.908 67.336
63 68 1.948 92.910 6.921 76.060
63 81 1.948 92.910 22.894 90.542
64 90 87.872 83.167 72.908 67.336
65 84 30.751 5.793 21.424 13.231
67 88 8.565 48.599 9.693 43.105
67 94 8.565 48.599 19.021 44.861
68 80 6.921 76.060 7.099 63.110
68 81 6.921 76.060 22.894 90.542
68 83 6.921 76.060 23.800 66.898
69 82 76.583 12.839 85.964 7.086
69 87 76.583 12.839 80.750 19.041
69 93 76.583 12.839 86.167 24.866
70 73 47.528 54.980 53.930 72.993
70 76 47.528 54.980 43.810 51.758
70 78 47.528 54.980 33.809 58.831
70 89 47.528 54.980 42.358 46.702
71 81 26.506 87.243 22.894 90.542
71 83 26.506 87.243 23.800 66.898
71 96 26.506 87.243 24.981 92.327
71 97 26.506 87.243 44.313 86.135
72 92 42.314 21.180 40.262 33.930
72 95 42.314 21.180 42.188 27.855
73 86 53.930 72.993 47.267 78.462
73 90 53.930 72.993 72.908 67.336
73 97 53.930 72.993 44.313 86.135
74 77 20.115 31.172 12.100 22.470
74 79 20.115 31.172 23.011 22.022
74 94 20.115 31.172 19.021 44.861
75 85 99.515 64.988 93.551 57.104
76 78 43.810 51.758 33.809 58.831
76 89 43.810 51.758 42.358 46.702
76 92 43.810 51.758 40.262 33.930
77 79 12.100 22.470 23.011 22.022
78 83 33.809 58.831 23.800 66.898
78 94 33.809 58.831 19.021 44.861
79 84 23.011 22.022 21.424 13.231
80 83 7.099 63.110 23.800 66.898
81 96 22.894 90.542 24.981 92.327
82 93 85.964 7.086 86.167 24.866
86 97 47.267 78.462 44.313 86.135
87 93 80.750 19.041 86.167 24.866
88 94 9.693 43.105 19.021 44.861
89 92 42.358 46.702 40.262 33.930
91 93 98.417 9.842 86.167 24.866
92 95 40.262 33.930 42.188 27.855
