# u v x_u y_u x_v y_v
0 1 10.000 10.000 45.000 20.000
0 6 10.000 10.000 30.000 45.000
1 2 45.000 20.000 80.000 15.000
1 6 45.000 20.000 30.000 45.000
1 11 45.000 20.000 75.000 30.000
2 11 80.000 15.000 75.000 30.000
3 4 110.000 35.000 95.000 65.000
3 11 110.000 35.000 75.000 30.000
3 13 110.000 35.000 105.000 55.000
4 5 95.000 65.000 60.000 55.000
4 9 95.000 65.000 85.000 95.000
4 10 95.000 65.000 115.000 80.000
4 13 95.000 65.000 105.000 55.000
5 6 60.000 55.000 30.000 45.000
5 11 60.000 55.000 75.000 30.000
5 12 60.000 55.000 40.000 70.000
6 7 30.000 45.000 15.000 80.000
6 12 30.000 45.000 40.000 70.000
7 12 15.000 80.000 40.000 70.000
8 12 50.000 90.000 40.000 70.000
10 13 115.000 80.000 105.000 55.000
