# u v x_u y_u x_v y_v
0 1 50.000 50.000 15.000 48.000
0 2 50.000 50.000 25.000 48.000
0 3 50.000 50.000 20.000 58.000
0 4 50.000 50.000 20.000 42.000
0 5 50.000 50.000 75.000 48.000
0 6 50.000 50.000 85.000 48.000
0 7 50.000 50.000 80.000 58.000
0 8 50.000 50.000 80.000 42.000
1 2 15.000 48.000 25.000 48.000
1 3 15.000 48.000 20.000 58.000
1 4 15.000 48.000 20.000 42.000
2 3 25.000 48.000 20.000 58.000
2 4 25.000 48.000 20.000 42.000
3 4 20.000 58.000 20.000 42.000
5 6 75.000 48.000 85.000 48.000
5 7 75.000 48.000 80.000 58.000
5 8 75.000 48.000 80.000 42.000
6 7 85.000 48.000 80.000 58.000
6 8 85.000 48.000 80.000 42.000
7 8 80.000 58.000 80.000 42.000
